HUN,8,6,318
3,21,4,23,5,25,1,26,2,27,0,25
1,23,2,28,4,21,0,25,3,21,5,25
4,27,2,29,0,30,3,26,1,23,5,21
4,24,3,23,1,30,5,22,0,24,2,22
1,22,0,22,5,22,3,21,4,21,2,27
4,21,5,28,2,27,1,23,0,21,3,28
1,22,4,30,3,26,5,30,0,26,2,26
0,28,3,26,5,28,4,22,1,27,2,25
